Route #1:
Route #2: 1 8 15 21
Route #3: 30 24 2
Route #4: 23 29 13 17 31
Route #5: 11 10 28 4 27 25
Route #6: 19
Route #7: 6 3 5
Route #8: 12
Route #9: 16
Route #10: 26
Route #11: 18 22 9 7 20 14

Cost: 2120.9988320880034
